WARNING: for repeatability, setting FPU to use double precision
============================[ Problem Statistics ]=============================
|                                                                             |
|  Number of variables:            50                                         |
|  Number of clauses:             218                                         |
|  Parse time:                   0.00 s                                       |
|                                                                             |
============================[ Search Statistics ]==============================
| Conflicts |          ORIGINAL         |          LEARNT          | Progress |
|           |    Vars  Clauses Literals |    Limit  Clauses Lit/Cl |          |
===============================================================================
===============================================================================
restarts              : 1
conflicts             : 45             (31293 /sec)
decisions             : 51             (0.00 % random) (35466 /sec)
propagations          : 603            (419332 /sec)
conflict literals     : 134            (23.86 % deleted)
Memory used           : 20.00 MB
CPU time              : 0.001438 s

UNSATISFIABLE
